n_nurse = 9;
n_week = 4;
n_day = n_week * 7;
n_work_period = 4;
dur_work_period = 6;

demande_min = array2d(1..n_day,1..n_work_period,[3,	2,	2,	0,
                                 1,	2,	2,	0,
                                 2,	2,	1,	0,
                                 2,	2,	1,	0,
                                 2,	2,	2,	0,
                                 2,	2,	2,	0,
                                 3,	2,	1,	0,
                                 3,	2,	2,	0,
                                 1,	2,	2,	0,
                                 2,	2,	1,	0,
                                 2,	2,	1,	0,
                                 2,	2,	2,	0,
                                 2,	2,	2,	0,
                                 3,	2,	1,	0,
                                 3,	2,	2,	0,
                                 1,	2,	2,	0,
                                 2,	2,	1,	0,
                                 2,	2,	1,	0,
                                 2,	2,	2,	0,
                                 2,	2,	2,	0,
                                 3,	2,	1,	0,
                                 3,	2,	2,	0,
                                 1,	2,	2,	0,
                                 2,	2,	1,	0,
                                 2,	2,	1,	0,
                                 2,	2,	2,	0,
                                 2,	2,	2,	0,
                                 3,	2,	1,	0]);
                                 
preference = array3d(1..n_nurse,1..n_day,1..n_work_period,[
% Employee 1
2,	1,	2,	2,
4,	1,	1,	1,
2,	1,	2,	1,
1,	4,	3,	2,
4,	3,	1,	4,
2,	1,	3,	3,
3,	4,	1,	1,
2,	1,	2,	2,
1,	1,	3,	2,
2,	4,	3,	1,
4,	3,	5,	4,
4,	3,	1,	4,
2,	1,	3,	3,
3,	4,	1,	1,
2,	1,	2,	2,
1,	1,	3,	2,
2,	4,	3,	1,
4,	3,	5,	4,
4,	3,	1,	4,
2,	1,	2,	3,
3,	4,	1,	1,
2,	1,	2,	2,
4,	1,	1,	1,
1,	1,	3,	2,
2,	4,	3,	1,
4,	3,	5,	4,
2,	1,	3,	3,
3,	4,	1,	1,
% Employee 2
1,	1,	3,	1,
1,	1,	3,	2,
2,	4,	3,	1,
4,	3,	5,	4,
2,	2,	1,	4,
1,	2,	1,	4,
1,	3,	4,	2,
1,	1,	3,	1,
1,	2,	4,	1,
1,	4,	2,	1,
1,	4,	2,	2,
2,	2,	1,	4,
1,	2,	1,	4,
1,	3,	4,	2,
2,	1,	2,	2,
1,	1,	3,	2,
2,	4,	3,	1,
4,	3,	5,	4,
4,	3,	1,	4,
2,	1,	3,	3,
3,	4,	1,	1,
2,	1,	2,	2,
4,	1,	2,	1,
1,	1,	3,	2,
2,	4,	3,	1,
4,	3,	5,	4,
2,	1,	3,	3,
3,	4,	1,	1,
% Employee 3
1,	4,	1,	1,
1,	1,	3,	2,
2,	4,	3,	1,
4,	3,	5,	4,
2,	1,	4,	1,
1,	4,	1,	4,
2,	2,	2,	1,
1,	4,	1,	1,
4,	3,	1,	2,
2,	2,	3,	2,
3,	2,	1,	4,
2,	1,	4,	1,
1,	1,	3,	2,
2,	4,	3,	1,
4,	3,	5,	4,
4,	1,	1,	1,
2,	1,	2,	2,
1,	4,	3,	2,
4,	3,	1,	4,
2,	1,	3,	3,
1,	1,	3,	2,
2,	4,	3,	1,
4,	3,	5,	4,
2,	1,	2,	2,
1,	4,	3,	2,
1,	1,	3,	2,
2,	4,	3,	1,
4,	3,	5,	4,
% Employee 4
4,	1,	2,	1,
4,	1,	1,	1,
3,	1,	1,	4,
3,	2,	2,	4,
2,	2,	3,	1,
1,	1,	3,	2,
2,	4,	3,	1,
4,	3,	5,	4,
4,	1,	1,	1,
3,	1,	1,	4,
3,	2,	2,	4,
2,	2,	3,	1,
1,	3,	3,	2,
1,	2,	4,	1,
2,	1,	2,	2,
1,	1,	3,	2,
2,	4,	3,	1,
4,	3,	5,	4,
4,	3,	1,	4,
2,	1,	3,	3,
3,	4,	1,	1,
2,	1,	2,	2,
4,	1,	1,	1,
1,	1,	3,	2,
2,	4,	3,	1,
4,	3,	5,	4,
2,	1,	3,	3,
3,	4,	1,	1,
% Employee 5
1,	3,	4,	1,
1,	3,	3,	1,
1,	2,	1,	4,
2,	2,	1,	4,
4,	3,	1,	1,
3,	2,	1,	3,
1,	1,	3,	2,
2,	4,	3,	1,
4,	3,	5,	4,
1,	2,	2,	4,
2,	2,	1,	4,
4,	3,	1,	1,
3,	2,	1,	3,
1,	2,	3,	1,
1,	1,	3,	2,
2,	4,	3,	1,
4,	3,	5,	4,
1,	4,	3,	2,
4,	3,	1,	4,
2,	1,	3,	3,
3,	4,	1,	1,
2,	1,	2,	2,
4,	1,	1,	1,
2,	1,	2,	2,
1,	1,	3,	2,
2,	4,	3,	1,
4,	3,	5,	4,
3,	4,	1,	1,
% Employee 6
1,	1,	4,	2,
2,	3,	3,	1,
3,	2,	2,	1,
4,	1,	1,	4,
4,	3,	1,	2,
3,	2,	2,	2,
2,	1,	1,	4,
1,	1,	4,	3,
1,	1,	3,	2,
2,	4,	3,	1,
4,	3,	5,	4,
4,	3,	1,	2,
3,	2,	2,	2,
2,	2,	1,	4,
2,	1,	2,	2,
4,	1,	1,	1,
2,	1,	2,	2,
1,	1,	3,	2,
2,	4,	3,	1,
4,	3,	5,	4,
3,	4,	1,	1,
2,	1,	2,	2,
4,	1,	1,	1,
2,	1,	2,	2,
1,	4,	3,	2,
1,	1,	3,	2,
2,	4,	3,	1,
4,	3,	5,	4,
% Employee 7
4,	2,	1,	4,
3,	6,	1,	1,
2,	2,	4,	2,
2,	2,	1,	4,
1,	1,	3,	2,
2,	4,	3,	1,
4,	3,	5,	4,
4,	2,	1,	4,
3,	2,	1,	1,
2,	2,	4,	2,
2,	2,	1,	4,
1,	3,	3,	4,
1,	3,	3,	1,
1,	4,	2,	1,
2,	1,	2,	2,
4,	1,	1,	1,
2,	1,	2,	2,
1,	1,	3,	2,
2,	4,	3,	1,
4,	3,	5,	4,
3,	4,	1,	1,
2,	1,	2,	2,
4,	1,	1,	1,
2,	1,	2,	2,
1,	4,	3,	2,
1,	1,	3,	2,
2,	4,	3,	1,
4,	3,	5,	4,
% Employee 8
3,	3,	1,	1,
3,	3,	1,	2,
2,	4,	1,	1,
2,	1,	3,	1,
2,	1,	3,	1,
1,	2,	1,	4,
1,	2,	1,	4,
3,	3,	1,	1,
3,	3,	1,	2,
2,	4,	1,	1,
2,	1,	3,	1,
2,	1,	3,	1,
1,	1,	3,	2,
2,	4,	3,	1,
4,	3,	5,	4,
4,	1,	1,	1,
2,	1,	2,	2,
1,	4,	3,	2,
4,	3,	1,	4,
2,	1,	3,	3,
3,	4,	1,	1,
1,	1,	3,	2,
2,	4,	3,	1,
4,	3,	5,	4,
1,	4,	3,	2,
1,	1,	3,	2,
2,	4,	3,	1,
4,	3,	5,	4,
% Employee 9
4,	2,	1,	4,
3,	2,	1,	1,
2,	2,	4,	2,
2,	2,	1,	4,
1,	3,	3,	4,
1,	3,	3,	1,
1,	4,	2,	1,
1,	1,	3,	2,
2,	4,	3,	1,
4,	3,	5,	4,
2,	2,	1,	4,
1,	3,	3,	4,
1,	3,	3,	1,
1,	4,	2,	1,
2,	1,	2,	2,
4,	1,	5,	1,
1,	1,	3,	2,
2,	4,	3,	1,
4,	3,	5,	4,
2,	1,	3,	3,
3,	4,	1,	1,
2,	1,	2,	2,
4,	1,	1,	1,
2,	1,	2,	2,
1,	4,	3,	2,
4,	3,	1,	4,
2,	1,	3,	3,
3,	4,	1,	1,
]);